
Gurobi 11.0.1 (win64) logging started Wed Mar 13 20:00:47 2024

Set parameter LogFile to value "C:\Projetos\Job_Rotation_Algorithms\Outputs\GurobiLogs\gurobi_log-output-29_ros-c28-BorbaRittModel-NoExtraConstraint-2.log"
Gurobi Optimizer version 11.0.1 build v11.0.1rc0 (win64 - Windows 10.0 (19045.2))

CPU model: 11th Gen Intel(R) Core(TM) i7-1165G7 @ 2.80GHz, instruction set [SSE2|AVX|AVX2|AVX512]
Thread count: 4 physical cores, 8 logical processors, using up to 1 threads


Gurobi 11.0.1 (win64) logging started Thu Mar 14 07:59:04 2024

Set parameter LogFile to value "C:\Projetos\Job_Rotation_Algorithms\Outputs\GurobiLogs\gurobi_log-output-29_ros-c28-BorbaRittModel-NoExtraConstraint-2.log"
Gurobi Optimizer version 11.0.1 build v11.0.1rc0 (win64 - Windows 10.0 (19045.2))

CPU model: 11th Gen Intel(R) Core(TM) i7-1165G7 @ 2.80GHz, instruction set [SSE2|AVX|AVX2|AVX512]
Thread count: 4 physical cores, 8 logical processors, using up to 1 threads


Gurobi 11.0.1 (win64) logging started Thu Mar 14 17:33:11 2024

Set parameter LogFile to value "C:\Projetos\Job_Rotation_Algorithms\Outputs\GurobiLogs\gurobi_log-output-29_ros-c28-BorbaRittModel-NoExtraConstraint-2.log"
Gurobi Optimizer version 11.0.1 build v11.0.1rc0 (win64 - Windows 10.0 (19045.2))

CPU model: 11th Gen Intel(R) Core(TM) i7-1165G7 @ 2.80GHz, instruction set [SSE2|AVX|AVX2|AVX512]
Thread count: 4 physical cores, 8 logical processors, using up to 1 threads

WLS license 901039 - registered to Bitka Analytics
Optimize a model with 793 rows, 290 columns and 2552 nonzeros
Model fingerprint: 0x691cb746
Variable types: 2 continuous, 288 integer (288 binary)
Coefficient statistics:
  Matrix range     [1e+00, 2e+01]
  Objective range  [1e+00, 1e+00]
  Bounds range     [1e+00, 6e+01]
  RHS range        [1e+00, 6e+01]
Presolve removed 3 rows and 3 columns
Presolve time: 0.02s
Presolved: 790 rows, 287 columns, 2546 nonzeros
Variable types: 0 continuous, 287 integer (286 binary)

Root relaxation: objective 5.000000e+01, 419 iterations, 0.00 seconds (0.01 work units)

    Nodes    |    Current Node    |     Objective Bounds      |     Work
 Expl Unexpl |  Obj  Depth IntInf | Incumbent    BestBd   Gap | It/Node Time

     0     0   50.00000    0   99          -   50.00000      -     -    0s
     0     0   50.00000    0  125          -   50.00000      -     -    0s
     0     0   50.00000    0  122          -   50.00000      -     -    0s
     0     0   50.00000    0  138          -   50.00000      -     -    0s
     0     0   50.00000    0  108          -   50.00000      -     -    0s
     0     0   50.00000    0   95          -   50.00000      -     -    0s
     0     0   50.00000    0  100          -   50.00000      -     -    0s
     0     0   50.00000    0  106          -   50.00000      -     -    0s
     0     0   50.00000    0  106          -   50.00000      -     -    0s
     0     0   50.00000    0  106          -   50.00000      -     -    0s
     0     2   50.00000    0  104          -   50.00000      -     -    0s
  1536   321   50.00000   20  115          -   50.00000      -  43.0    5s
* 1687   263              21      31.0000000   50.00000  61.3%  50.2    5s
* 1918   186              26      38.0000000   50.00000  31.6%  57.1    6s
H 2222   133                      39.0000000   50.00000  28.2%  65.0    7s
  2929    55 infeasible   24        39.00000   49.00000  25.6%  75.4   10s

Cutting planes:
  Zero half: 1
  RLT: 1

Explored 3095 nodes (272256 simplex iterations) in 10.45 seconds (10.73 work units)
Thread count was 1 (of 8 available processors)

Solution count 3: 39 38 31 

Optimal solution found (tolerance 1.00e-03)
Best objective 3.900000000000e+01, best bound 3.900000000000e+01, gap 0.0000%
